N = 7;
H = 5;
T = 2;

avail = array3d(1..N, 1..H, 1..T, [1, 3, 1, 1, 5, 3, 6, 6, 3, 5, 6, 0, 3, 5, 1, 7, 10, 0, 0, 6, 6, 7, 8, 7, 9, 9, 4, 6, 5, 6, 5, 2, 4, 6, 3, 0, 6, 9, 0, 5, 9, 4, 5, 4, 4, 5, 4, 7, 4, 5, 0, 10, 1, 10, 0, 7, 1, 6, 1, 1, 0, 1, 2, 4, 10, 3, 10, 8, 1, 6]);

r = array2d(1..H, 1..T, [2, 2, 2, 3, 2, 2, 3, 2, 1, 2]);
